(set-logic QF_NRA)
; benchmark generated from python API
(set-info :status unknown)
(declare-fun v1y () Real)
(declare-fun oy () Real)
(declare-fun v1x () Real)
(declare-fun R2 () Real)
(declare-fun y1y () Real)
(declare-fun xy () Real)
(declare-fun y1x () Real)
(declare-fun xx () Real)
(declare-fun rho2 () Real)
(declare-fun y2y () Real)
(declare-fun y2x () Real)
(declare-fun y3y () Real)
(declare-fun y3x () Real)
(declare-fun b1y () Real)
(declare-fun b1x () Real)
(assert
 (let ((?x452 (* (- 1.0) v1x)))
 (let ((?x108 (* (- 1.0) R2)))
 (let ((?x385 (+ (+ (+ (+ (/ 1.0 4.0) (* oy oy)) (* v1x v1x)) (* v1y v1y)) ?x108)))
 (= (+ (+ ?x385 ?x452) (* (* (- 2.0) oy) v1y)) 0.0)))))
(assert
 (= (+ (+ (/ 1.0 4.0) (* oy oy)) (* (- 1.0) R2)) 0.0))
(assert
 (let ((?x265 (* (- 1.0) rho2)))
 (let ((?x154 (* y1y y1y)))
 (let ((?x350 (+ (+ (+ (+ (* xx xx) (* xy xy)) (* y1x y1x)) ?x154) ?x265)))
 (= (+ (+ ?x350 (* (* (- 2.0) xx) y1x)) (* (* (- 2.0) xy) y1y)) 0.0)))))
(assert
 (let ((?x265 (* (- 1.0) rho2)))
 (let ((?x202 (* y2y y2y)))
 (let ((?x133 (+ (+ (+ (+ (* xx xx) (* xy xy)) (* y2x y2x)) ?x202) ?x265)))
 (= (+ (+ ?x133 (* (* (- 2.0) xx) y2x)) (* (* (- 2.0) xy) y2y)) 0.0)))))
(assert
 (let ((?x265 (* (- 1.0) rho2)))
 (let ((?x470 (* y3y y3y)))
 (let ((?x460 (+ (+ (+ (+ (* xx xx) (* xy xy)) (* y3x y3x)) ?x470) ?x265)))
 (= (+ (+ ?x460 (* (* (- 2.0) xx) y3x)) (* (* (- 2.0) xy) y3y)) 0.0)))))
(assert
 (let ((?x265 (* (- 1.0) rho2)))
 (let ((?x23 (* xy xy)))
 (let ((?x302 (+ (+ (+ (+ (* b1x b1x) (* b1y b1y)) (* xx xx)) ?x23) ?x265)))
 (= (+ (+ ?x302 (* (* (- 2.0) b1x) xx)) (* (* (- 2.0) b1y) xy)) 0.0)))))
(assert
 (let ((?x288 (+ (+ (+ (+ (- (/ 1.0 4.0)) R2) xx) (* (- 1.0) (* oy oy))) (* (- 1.0) (* xx xx)))))
 (>= (+ (+ ?x288 (* (- 1.0) (* xy xy))) (* (* 2.0 oy) xy)) 0.0)))
(assert
 (let ((?x355 (+ (+ (+ (+ (- (/ 1.0 4.0)) R2) y1x) (* (- 1.0) (* oy oy))) (* (- 1.0) (* y1x y1x)))))
 (>= (+ (+ ?x355 (* (- 1.0) (* y1y y1y))) (* (* 2.0 oy) y1y)) 0.0)))
(assert
 (let ((?x487 (+ (+ (+ (+ (- (/ 1.0 4.0)) R2) y2x) (* (- 1.0) (* oy oy))) (* (- 1.0) (* y2x y2x)))))
 (>= (+ (+ ?x487 (* (- 1.0) (* y2y y2y))) (* (* 2.0 oy) y2y)) 0.0)))
(assert
 (let ((?x494 (+ (+ (+ (+ (- (/ 1.0 4.0)) R2) y3x) (* (- 1.0) (* oy oy))) (* (- 1.0) (* y3x y3x)))))
 (>= (+ (+ ?x494 (* (- 1.0) (* y3y y3y))) (* (* 2.0 oy) y3y)) 0.0)))
(assert
 (let ((?x299 (* oy oy)))
 (let ((?x430 (* (- 1.0) ?x299)))
 (let ((?x314 (+ (+ (+ (+ (- (/ 1.0 4.0)) R2) b1x) (* (- 1.0) (* b1x b1x))) (* (- 1.0) (* b1y b1y)))))
 (>= (+ (+ ?x314 ?x430) (* (* 2.0 b1y) oy)) 0.0)))))
(assert
 (>= (+ (+ (* v1x v1x) (* v1y v1y)) (* (- 1.0) v1x)) 0.0))
(assert
 (>= v1x 0.0))
(assert
 (>= (+ 1.0 (* (- 1.0) v1x)) 0.0))
(assert
 (> R2 0.0))
(assert
 (> rho2 0.0))
(assert
 (let ((?x279 (* (- 1.0) v1y)))
 (let ((?x149 (* ?x279 xy)))
 (> ?x149 0.0))))
(assert
 (let ((?x417 (+ (+ (* v1y v1y) (* (* (- 1.0) v1y) xy)) (* (* (- 1.0) xx) (* v1y v1y)))))
 (> (+ ?x417 (* (* v1x v1y) xy)) 0.0)))
(assert
 (> (+ (* xx (* v1y v1y)) (* (* (* (- 1.0) v1x) v1y) xy)) 0.0))
(assert
 (let ((?x279 (* (- 1.0) v1y)))
 (let ((?x429 (* ?x279 y1y)))
 (> ?x429 0.0))))
(assert
 (let ((?x339 (+ (+ (* v1y v1y) (* (* (- 1.0) v1y) y1y)) (* (* (- 1.0) y1x) (* v1y v1y)))))
 (> (+ ?x339 (* (* v1x v1y) y1y)) 0.0)))
(assert
 (> (+ (* y1x (* v1y v1y)) (* (* (* (- 1.0) v1x) v1y) y1y)) 0.0))
(assert
 (let ((?x279 (* (- 1.0) v1y)))
 (let ((?x441 (* ?x279 y2y)))
 (> ?x441 0.0))))
(assert
 (let ((?x440 (+ (+ (* v1y v1y) (* (* (- 1.0) v1y) y2y)) (* (* (- 1.0) y2x) (* v1y v1y)))))
 (> (+ ?x440 (* (* v1x v1y) y2y)) 0.0)))
(assert
 (> (+ (* y2x (* v1y v1y)) (* (* (* (- 1.0) v1x) v1y) y2y)) 0.0))
(assert
 (let ((?x279 (* (- 1.0) v1y)))
 (let ((?x372 (* ?x279 y3y)))
 (> ?x372 0.0))))
(assert
 (let ((?x33 (+ (+ (* v1y v1y) (* (* (- 1.0) v1y) y3y)) (* (* (- 1.0) y3x) (* v1y v1y)))))
 (> (+ ?x33 (* (* v1x v1y) y3y)) 0.0)))
(assert
 (> (+ (* y3x (* v1y v1y)) (* (* (* (- 1.0) v1x) v1y) y3y)) 0.0))
(assert
 (> (* b1y v1y) 0.0))
(assert
 (let ((?x41 (* b1y v1x)))
 (let ((?x141 (* ?x41 v1y)))
 (let ((?x431 (+ (+ (* v1y v1y) (* (* (- 1.0) b1x) (* v1y v1y))) (* (* (- 1.0) b1y) v1y))))
 (> (+ ?x431 ?x141) 0.0)))))
(assert
 (> (+ (* (* (- 1.0) b1x) (* v1y v1y)) (* (* b1y v1x) v1y)) 0.0))
(assert
 (> (+ (* xy y1x) (* (* (- 1.0) xx) y1y)) 0.0))
(assert
 (> (+ (* y1x y2y) (* (* (- 1.0) y1y) y2x)) 0.0))
(assert
 (> (+ (* y1x y3y) (* (* (- 1.0) y1y) y3x)) 0.0))
(assert
 (let ((?x480 (* (- 1.0) y1y)))
 (> ?x480 0.0)))
(assert
 (> (+ (* v1y y1x) (* (* (- 1.0) v1x) y1y)) 0.0))
(assert
 (> (+ (* b1y y1x) (* (* (- 1.0) b1x) y1y)) 0.0))
(assert
 (> (+ (* xx y2y) (* (* (- 1.0) xy) y2x)) 0.0))
(assert
 (> (+ (* xx y3y) (* (* (- 1.0) xy) y3x)) 0.0))
(assert
 (let ((?x406 (* (- 1.0) xy)))
 (> ?x406 0.0)))
(assert
 (> (+ (* v1y xx) (* (* (- 1.0) v1x) xy)) 0.0))
(assert
 (> (+ (* b1y xx) (* (* (- 1.0) b1x) xy)) 0.0))
(assert
 (> (+ (* y2x y3y) (* (* (- 1.0) y2y) y3x)) 0.0))
(assert
 (let ((?x26 (* (- 1.0) y2y)))
 (> ?x26 0.0)))
(assert
 (> (+ (* v1y y2x) (* (* (- 1.0) v1x) y2y)) 0.0))
(assert
 (> (+ (* b1y y2x) (* (* (- 1.0) b1x) y2y)) 0.0))
(assert
 (let ((?x164 (* (- 1.0) y3y)))
 (> ?x164 0.0)))
(assert
 (> (+ (* v1y y3x) (* (* (- 1.0) v1x) y3y)) 0.0))
(assert
 (> (+ (* b1y y3x) (* (* (- 1.0) b1x) y3y)) 0.0))
(assert
 (> v1y 0.0))
(assert
 (> b1y 0.0))
(assert
 (> (+ (* b1y v1x) (* (* (- 1.0) b1x) v1y)) 0.0))
(assert
 (let ((?x406 (* (- 1.0) xy)))
 (let ((?x367 (* ?x406 y2x)))
 (let ((?x423 (* (- 1.0) xx)))
 (let ((?x67 (* ?x423 y1y)))
 (let ((?x330 (+ (+ (+ (+ (* xx y2y) (* xy y1x)) (* y1y y2x)) ?x67) ?x367)))
 (> (+ ?x330 (* (* (- 1.0) y1x) y2y)) 0.0)))))))
(assert
 (let ((?x260 (* (- 1.0) y1x)))
 (let ((?x235 (* ?x260 y3y)))
 (let ((?x406 (* (- 1.0) xy)))
 (let ((?x203 (* ?x406 y3x)))
 (let ((?x423 (* (- 1.0) xx)))
 (let ((?x67 (* ?x423 y1y)))
 (let ((?x360 (+ (+ (+ (+ (* xx y3y) (* xy y1x)) (* y1y y3x)) ?x67) ?x203)))
 (> (+ ?x360 ?x235) 0.0)))))))))
(assert
 (let ((?x423 (* (- 1.0) xx)))
 (let ((?x67 (* ?x423 y1y)))
 (> (+ (+ (+ y1y (* (- 1.0) xy)) (* xy y1x)) ?x67) 0.0))))
(assert
 (let ((?x423 (* (- 1.0) xx)))
 (let ((?x67 (* ?x423 y1y)))
 (let ((?x279 (* (- 1.0) v1y)))
 (let ((?x58 (* ?x279 y1x)))
 (let ((?x452 (* (- 1.0) v1x)))
 (let ((?x89 (* ?x452 xy)))
 (let ((?x253 (+ (+ (+ (+ (* v1x y1y) (* v1y xx)) (* xy y1x)) ?x89) ?x58)))
 (> (+ ?x253 ?x67) 0.0)))))))))
(assert
 (let ((?x423 (* (- 1.0) xx)))
 (let ((?x67 (* ?x423 y1y)))
 (let ((?x369 (* (- 1.0) b1y)))
 (let ((?x377 (* ?x369 y1x)))
 (let ((?x209 (* (- 1.0) b1x)))
 (let ((?x450 (* ?x209 xy)))
 (let ((?x94 (+ (+ (+ (+ (* b1x y1y) (* b1y xx)) (* xy y1x)) ?x450) ?x377)))
 (> (+ ?x94 ?x67) 0.0)))))))))
(assert
 (let ((?x26 (* (- 1.0) y2y)))
 (let ((?x87 (* ?x26 y3x)))
 (let ((?x480 (* (- 1.0) y1y)))
 (let ((?x266 (* ?x480 y2x)))
 (let ((?x260 (* (- 1.0) y1x)))
 (let ((?x235 (* ?x260 y3y)))
 (let ((?x321 (+ (+ (+ (+ (* y1x y2y) (* y1y y3x)) (* y2x y3y)) ?x235) ?x266)))
 (> (+ ?x321 ?x87) 0.0)))))))))
(assert
 (let ((?x480 (* (- 1.0) y1y)))
 (let ((?x266 (* ?x480 y2x)))
 (> (+ (+ (+ y1y (* (- 1.0) y2y)) (* y1x y2y)) ?x266) 0.0))))
(assert
 (let ((?x480 (* (- 1.0) y1y)))
 (let ((?x266 (* ?x480 y2x)))
 (let ((?x279 (* (- 1.0) v1y)))
 (let ((?x58 (* ?x279 y1x)))
 (let ((?x452 (* (- 1.0) v1x)))
 (let ((?x332 (* ?x452 y2y)))
 (let ((?x283 (+ (+ (+ (+ (* v1x y1y) (* v1y y2x)) (* y1x y2y)) ?x332) ?x58)))
 (> (+ ?x283 ?x266) 0.0)))))))))
(assert
 (let ((?x480 (* (- 1.0) y1y)))
 (let ((?x266 (* ?x480 y2x)))
 (let ((?x369 (* (- 1.0) b1y)))
 (let ((?x377 (* ?x369 y1x)))
 (let ((?x209 (* (- 1.0) b1x)))
 (let ((?x465 (* ?x209 y2y)))
 (let ((?x239 (+ (+ (+ (+ (* b1x y1y) (* b1y y2x)) (* y1x y2y)) ?x465) ?x377)))
 (> (+ ?x239 ?x266) 0.0)))))))))
(assert
 (let ((?x480 (* (- 1.0) y1y)))
 (let ((?x248 (* ?x480 y3x)))
 (> (+ (+ (+ y1y (* (- 1.0) y3y)) (* y1x y3y)) ?x248) 0.0))))
(assert
 (let ((?x480 (* (- 1.0) y1y)))
 (let ((?x248 (* ?x480 y3x)))
 (let ((?x279 (* (- 1.0) v1y)))
 (let ((?x58 (* ?x279 y1x)))
 (let ((?x452 (* (- 1.0) v1x)))
 (let ((?x71 (* ?x452 y3y)))
 (let ((?x357 (+ (+ (+ (+ (* v1x y1y) (* v1y y3x)) (* y1x y3y)) ?x71) ?x58)))
 (> (+ ?x357 ?x248) 0.0)))))))))
(assert
 (let ((?x480 (* (- 1.0) y1y)))
 (let ((?x248 (* ?x480 y3x)))
 (let ((?x369 (* (- 1.0) b1y)))
 (let ((?x377 (* ?x369 y1x)))
 (let ((?x209 (* (- 1.0) b1x)))
 (let ((?x192 (* ?x209 y3y)))
 (let ((?x9 (+ (+ (+ (+ (* b1x y1y) (* b1y y3x)) (* y1x y3y)) ?x192) ?x377)))
 (> (+ ?x9 ?x248) 0.0)))))))))
(assert
 (let ((?x279 (* (- 1.0) v1y)))
 (let ((?x58 (* ?x279 y1x)))
 (> (+ (+ (+ v1y (* (- 1.0) y1y)) (* v1x y1y)) ?x58) 0.0))))
(assert
 (let ((?x369 (* (- 1.0) b1y)))
 (let ((?x377 (* ?x369 y1x)))
 (> (+ (+ (+ b1y (* (- 1.0) y1y)) (* b1x y1y)) ?x377) 0.0))))
(assert
 (let ((?x452 (* (- 1.0) v1x)))
 (let ((?x132 (* ?x452 y1y)))
 (let ((?x369 (* (- 1.0) b1y)))
 (let ((?x377 (* ?x369 y1x)))
 (let ((?x209 (* (- 1.0) b1x)))
 (let ((?x182 (* ?x209 v1y)))
 (let ((?x276 (+ (+ (+ (+ (* b1x y1y) (* b1y v1x)) (* v1y y1x)) ?x182) ?x377)))
 (> (+ ?x276 ?x132) 0.0)))))))))
(assert
 (let ((?x26 (* (- 1.0) y2y)))
 (let ((?x87 (* ?x26 y3x)))
 (let ((?x406 (* (- 1.0) xy)))
 (let ((?x367 (* ?x406 y2x)))
 (let ((?x393 (+ (+ (+ (* xx y2y) (* xy y3x)) (* y2x y3y)) (* (* (- 1.0) xx) y3y))))
 (> (+ (+ ?x393 ?x367) ?x87) 0.0)))))))
(assert
 (let ((?x406 (* (- 1.0) xy)))
 (let ((?x367 (* ?x406 y2x)))
 (> (+ (+ (+ xy (* (- 1.0) y2y)) (* xx y2y)) ?x367) 0.0))))
(assert
 (let ((?x406 (* (- 1.0) xy)))
 (let ((?x367 (* ?x406 y2x)))
 (let ((?x279 (* (- 1.0) v1y)))
 (let ((?x245 (* ?x279 xx)))
 (let ((?x452 (* (- 1.0) v1x)))
 (let ((?x332 (* ?x452 y2y)))
 (let ((?x166 (+ (+ (+ (+ (* v1x xy) (* v1y y2x)) (* xx y2y)) ?x332) ?x245)))
 (> (+ ?x166 ?x367) 0.0)))))))))
(assert
 (let ((?x406 (* (- 1.0) xy)))
 (let ((?x367 (* ?x406 y2x)))
 (let ((?x369 (* (- 1.0) b1y)))
 (let ((?x312 (* ?x369 xx)))
 (let ((?x209 (* (- 1.0) b1x)))
 (let ((?x465 (* ?x209 y2y)))
 (let ((?x814 (+ (+ (+ (+ (* b1x xy) (* b1y y2x)) (* xx y2y)) ?x465) ?x312)))
 (> (+ ?x814 ?x367) 0.0)))))))))
(assert
 (let ((?x406 (* (- 1.0) xy)))
 (let ((?x203 (* ?x406 y3x)))
 (> (+ (+ (+ xy (* (- 1.0) y3y)) (* xx y3y)) ?x203) 0.0))))
(assert
 (let ((?x406 (* (- 1.0) xy)))
 (let ((?x203 (* ?x406 y3x)))
 (let ((?x279 (* (- 1.0) v1y)))
 (let ((?x245 (* ?x279 xx)))
 (let ((?x452 (* (- 1.0) v1x)))
 (let ((?x71 (* ?x452 y3y)))
 (let ((?x147 (+ (+ (+ (+ (* v1x xy) (* v1y y3x)) (* xx y3y)) ?x71) ?x245)))
 (> (+ ?x147 ?x203) 0.0)))))))))
(assert
 (let ((?x406 (* (- 1.0) xy)))
 (let ((?x203 (* ?x406 y3x)))
 (let ((?x369 (* (- 1.0) b1y)))
 (let ((?x312 (* ?x369 xx)))
 (let ((?x209 (* (- 1.0) b1x)))
 (let ((?x192 (* ?x209 y3y)))
 (let ((?x250 (+ (+ (+ (+ (* b1x xy) (* b1y y3x)) (* xx y3y)) ?x192) ?x312)))
 (> (+ ?x250 ?x203) 0.0)))))))))
(assert
 (let ((?x279 (* (- 1.0) v1y)))
 (let ((?x245 (* ?x279 xx)))
 (> (+ (+ (+ v1y (* (- 1.0) xy)) (* v1x xy)) ?x245) 0.0))))
(assert
 (let ((?x369 (* (- 1.0) b1y)))
 (let ((?x312 (* ?x369 xx)))
 (> (+ (+ (+ b1y (* (- 1.0) xy)) (* b1x xy)) ?x312) 0.0))))
(assert
 (let ((?x452 (* (- 1.0) v1x)))
 (let ((?x89 (* ?x452 xy)))
 (let ((?x369 (* (- 1.0) b1y)))
 (let ((?x312 (* ?x369 xx)))
 (let ((?x209 (* (- 1.0) b1x)))
 (let ((?x182 (* ?x209 v1y)))
 (let ((?x13 (+ (+ (+ (+ (* b1x xy) (* b1y v1x)) (* v1y xx)) ?x182) ?x312)))
 (> (+ ?x13 ?x89) 0.0)))))))))
(assert
 (let ((?x26 (* (- 1.0) y2y)))
 (let ((?x87 (* ?x26 y3x)))
 (> (+ (+ (+ y2y (* (- 1.0) y3y)) (* y2x y3y)) ?x87) 0.0))))
(assert
 (let ((?x26 (* (- 1.0) y2y)))
 (let ((?x87 (* ?x26 y3x)))
 (let ((?x279 (* (- 1.0) v1y)))
 (let ((?x331 (* ?x279 y2x)))
 (let ((?x452 (* (- 1.0) v1x)))
 (let ((?x71 (* ?x452 y3y)))
 (let ((?x571 (+ (+ (+ (+ (* v1x y2y) (* v1y y3x)) (* y2x y3y)) ?x71) ?x331)))
 (> (+ ?x571 ?x87) 0.0)))))))))
(assert
 (let ((?x26 (* (- 1.0) y2y)))
 (let ((?x87 (* ?x26 y3x)))
 (let ((?x369 (* (- 1.0) b1y)))
 (let ((?x342 (* ?x369 y2x)))
 (let ((?x209 (* (- 1.0) b1x)))
 (let ((?x192 (* ?x209 y3y)))
 (let ((?x363 (+ (+ (+ (+ (* b1x y2y) (* b1y y3x)) (* y2x y3y)) ?x192) ?x342)))
 (> (+ ?x363 ?x87) 0.0)))))))))
(assert
 (let ((?x279 (* (- 1.0) v1y)))
 (let ((?x331 (* ?x279 y2x)))
 (> (+ (+ (+ v1y (* (- 1.0) y2y)) (* v1x y2y)) ?x331) 0.0))))
(assert
 (let ((?x369 (* (- 1.0) b1y)))
 (let ((?x342 (* ?x369 y2x)))
 (> (+ (+ (+ b1y (* (- 1.0) y2y)) (* b1x y2y)) ?x342) 0.0))))
(assert
 (let ((?x452 (* (- 1.0) v1x)))
 (let ((?x332 (* ?x452 y2y)))
 (let ((?x369 (* (- 1.0) b1y)))
 (let ((?x342 (* ?x369 y2x)))
 (let ((?x209 (* (- 1.0) b1x)))
 (let ((?x182 (* ?x209 v1y)))
 (let ((?x396 (+ (+ (+ (+ (* b1x y2y) (* b1y v1x)) (* v1y y2x)) ?x182) ?x342)))
 (> (+ ?x396 ?x332) 0.0)))))))))
(assert
 (let ((?x156 (+ (+ (+ v1y (* (- 1.0) y3y)) (* v1x y3y)) (* (* (- 1.0) v1y) y3x))))
 (> ?x156 0.0)))
(assert
 (let ((?x369 (* (- 1.0) b1y)))
 (let ((?x80 (* ?x369 y3x)))
 (> (+ (+ (+ b1y (* (- 1.0) y3y)) (* b1x y3y)) ?x80) 0.0))))
(assert
 (let ((?x452 (* (- 1.0) v1x)))
 (let ((?x71 (* ?x452 y3y)))
 (let ((?x369 (* (- 1.0) b1y)))
 (let ((?x80 (* ?x369 y3x)))
 (let ((?x209 (* (- 1.0) b1x)))
 (let ((?x182 (* ?x209 v1y)))
 (let ((?x300 (+ (+ (+ (+ (* b1x y3y) (* b1y v1x)) (* v1y y3x)) ?x182) ?x80)))
 (> (+ ?x300 ?x71) 0.0)))))))))
(assert
 (let ((?x209 (* (- 1.0) b1x)))
(let ((?x182 (* ?x209 v1y)))
(> (+ (+ (+ v1y (* (- 1.0) b1y)) (* b1y v1x)) ?x182) 0.0))))
(check-sat)
